(set-logic HORN)
(set-info :source |
    Benchmark: C_VC
    Output by Princess (http://www.philipp.ruemmer.org/princess.shtml)
|)
(set-info :status unsat)
(declare-fun inv_main109 (Int Int Int Int Int Int Int Int Int Int Int Int) Bool)
(declare-fun inv_main153 (Int Int Int Int Int Int Int Int Int Int Int Int Int Int Int) Bool)
(declare-fun inv_main164 (Int Int Int Int Int Int Int Int Int Int Int Int Int Int) Bool)
(declare-fun inv_main169 (Int Int Int Int Int Int Int Int Int Int Int Int Int Int) Bool)
(declare-fun inv_main180 (Int Int Int Int Int Int Int Int Int Int Int Int Int Int) Bool)
(declare-fun inv_main224 (Int Int Int Int Int Int Int Int Int Int Int Int Int Int Int Int Int) Bool)
(declare-fun inv_main242 (Int Int Int Int Int Int Int Int Int Int Int Int Int Int) Bool)
(declare-fun inv_main253 (Int Int Int Int Int Int Int Int Int Int Int Int Int Int) Bool)
(declare-fun inv_main297 (Int Int Int Int Int Int Int Int Int Int Int Int Int Int Int Int Int) Bool)
(declare-fun inv_main39 (Int Int Int Int Int Int Int Int Int Int Int Int) Bool)
(declare-fun inv_main4 (Int Int Int Int Int Int Int) Bool)
(declare-fun inv_main49 (Int Int Int Int Int Int Int Int Int Int Int Int) Bool)
(declare-fun inv_main62 (Int Int Int Int Int Int Int Int Int Int Int Int) Bool)
(declare-fun inv_main73 (Int Int Int Int Int Int Int Int Int Int Int Int) Bool)
(declare-fun inv_main98 (Int Int Int Int Int Int Int Int Int Int Int Int) Bool)
(assert (forall ((var0 Int) (var1 Int)) (inv_main4 1 0 4 0 1 var1 var0)))
(assert (forall ((var0 Int) (var1 Int) (var2 Int) (var3 Int) (var4 Int) (var5 Int) (var6 Int) (var7 Int) (var8 Int) (var9 Int) (var10 Int) (var11 Int) (var12 Int) (var13 Int)) (or (not (and (inv_main62 var13 var12 var11 var10 var9 var8 var7 var6 var5 var4 var3 var2) (and (= var1 0) (= var0 0)))) (inv_main73 var13 var12 var11 var10 var9 var8 var7 var6 var5 var4 var1 var0))))
(assert (forall ((var0 Int) (var1 Int) (var2 Int) (var3 Int) (var4 Int) (var5 Int) (var6 Int) (var7 Int) (var8 Int) (var9 Int) (var10 Int) (var11 Int) (var12 Int)) (or (not (and (inv_main62 var12 var11 var10 var9 var8 var7 var6 var5 var4 var3 var2 var1) (not (= var0 0)))) (inv_main73 var12 var11 var10 var9 1 var7 var6 var5 var4 var3 var2 var0))))
(assert (forall ((var0 Int) (var1 Int) (var2 Int) (var3 Int) (var4 Int) (var5 Int) (var6 Int) (var7 Int) (var8 Int) (var9 Int) (var10 Int) (var11 Int) (var12 Int) (var13 Int)) (or (not (and (inv_main62 var13 var12 var11 var10 var9 var8 var7 var6 var5 var4 var3 var2) (and (= var10 0) (and (not (= var1 0)) (= var0 0))))) (inv_main73 var13 var12 var11 var10 0 var8 var7 var6 var5 var4 var1 var0))))
(assert (forall ((var0 Int) (var1 Int) (var2 Int) (var3 Int) (var4 Int) (var5 Int) (var6 Int) (var7 Int) (var8 Int) (var9 Int) (var10 Int) (var11 Int) (var12 Int) (var13 Int)) (or (not (and (inv_main62 var13 var12 var11 var10 var9 var8 var7 var6 var5 var4 var3 var2) (and (not (= var10 0)) (and (not (= var1 0)) (= var0 0))))) (inv_main73 var13 var12 var11 0 0 var8 var7 var6 var5 var4 var1 var0))))
(assert (forall ((var0 Int) (var1 Int) (var2 Int) (var3 Int) (var4 Int) (var5 Int) (var6 Int) (var7 Int) (var8 Int) (var9 Int) (var10 Int) (var11 Int) (var12 Int)) (or (not (and (inv_main39 var12 var11 var10 var9 var8 var7 var6 var5 var4 var3 var2 var1) (and (= var0 0) (<= 0 (+ (+ 4 (* (- 1) var5)) (- 1)))))) (inv_main49 var12 var11 var10 var9 var8 var7 var6 var5 var0 var3 var2 var1))))
(assert (forall ((var0 Int) (var1 Int) (var2 Int) (var3 Int) (var4 Int) (var5 Int) (var6 Int) (var7 Int) (var8 Int) (var9 Int) (var10 Int) (var11 Int) (var12 Int)) (or (not (and (inv_main39 var12 var11 var10 var9 var8 var7 var6 var5 var4 var3 var2 var1) (and (<= 0 (+ (+ 2 (* (- 1) var12)) (- 1))) (and (not (= var0 0)) (<= 0 (+ (+ 4 (* (- 1) var5)) (- 1))))))) (inv_main49 (+ var12 1) var11 var10 var9 var8 var7 var6 var5 var0 var3 var2 var1))))
(assert (forall ((var0 Int) (var1 Int) (var2 Int) (var3 Int) (var4 Int) (var5 Int) (var6 Int) (var7 Int) (var8 Int) (var9 Int) (var10 Int) (var11 Int) (var12 Int)) (or (not (and (inv_main39 var12 var11 var10 var9 var8 var7 var6 var5 var4 var3 var2 var1) (and (not (<= 0 (+ (+ 2 (* (- 1) var12)) (- 1)))) (and (not (= var0 0)) (<= 0 (+ (+ 4 (* (- 1) var5)) (- 1))))))) (inv_main49 var12 var11 var10 var9 var8 var7 var6 var5 var0 var3 var2 var1))))
(assert (forall ((var0 Int) (var1 Int) (var2 Int) (var3 Int) (var4 Int) (var5 Int) (var6 Int) (var7 Int) (var8 Int) (var9 Int) (var10 Int) (var11 Int) (var12 Int) (var13 Int)) (or (not (and (inv_main180 var13 var12 var11 var10 var9 var8 var7 var6 var5 var4 var3 var2 var1 var0) (and (= var10 0) (and (= var13 2) (= var12 0))))) (inv_main224 var13 var12 var11 var10 var9 var8 var7 var6 var5 var4 var3 var2 var1 var0 var12 var13 var10))))
(assert (forall ((var0 Int) (var1 Int) (var2 Int) (var3 Int) (var4 Int) (var5 Int) (var6 Int) (var7 Int) (var8 Int) (var9 Int) (var10 Int) (var11 Int) (var12 Int) (var13 Int)) (or (not (and (inv_main164 var13 var12 var11 var10 var9 var8 var7 var6 var5 var4 var3 var2 var1 var0) (and (= var10 0) (<= 0 (+ (+ (+ var11 (- 1)) (* (- 1) var1)) (- 1)))))) (inv_main242 var13 var12 var11 var10 var9 var8 var7 var6 var5 var4 var3 var2 var1 (+ var11 (- 1))))))
(assert (forall ((var0 Int) (var1 Int) (var2 Int) (var3 Int) (var4 Int) (var5 Int) (var6 Int) (var7 Int) (var8 Int) (var9 Int) (var10 Int) (var11 Int) (var12 Int) (var13 Int)) (or (not (and (inv_main164 var13 var12 var11 var10 var9 var8 var7 var6 var5 var4 var3 var2 var1 var0) (and (<= 0 (+ var13 (- 1))) (and (not (= var10 0)) (<= 0 (+ (+ (+ var11 (- 1)) (* (- 1) var1)) (- 1))))))) (inv_main242 (+ var13 (- 1)) var12 var11 var10 var9 var8 var7 var6 var5 var4 var3 var2 var1 (+ var11 (- 1))))))
(assert (forall ((var0 Int) (var1 Int) (var2 Int) (var3 Int) (var4 Int) (var5 Int) (var6 Int) (var7 Int) (var8 Int) (var9 Int) (var10 Int) (var11 Int) (var12 Int) (var13 Int)) (or (not (and (inv_main164 var13 var12 var11 var10 var9 var8 var7 var6 var5 var4 var3 var2 var1 var0) (and (not (<= 0 (+ var13 (- 1)))) (and (not (= var10 0)) (<= 0 (+ (+ (+ var11 (- 1)) (* (- 1) var1)) (- 1))))))) (inv_main242 var13 var12 var11 var10 var9 var8 var7 var6 var5 var4 var3 var2 var1 (+ var11 (- 1))))))
(assert (forall ((var0 Int) (var1 Int) (var2 Int) (var3 Int) (var4 Int) (var5 Int) (var6 Int) (var7 Int) (var8 Int) (var9 Int) (var10 Int) (var11 Int) (var12 Int)) (or (not (and (inv_main49 var12 var11 var10 var9 var8 var7 var6 var5 var4 var3 var2 var1) (= var0 0))) (inv_main62 var12 var11 var10 var9 var8 var7 var6 var5 var4 var0 var2 var1))))
(assert (forall ((var0 Int) (var1 Int) (var2 Int) (var3 Int) (var4 Int) (var5 Int) (var6 Int) (var7 Int) (var8 Int) (var9 Int) (var10 Int) (var11 Int) (var12 Int)) (or (not (and (inv_main49 var12 var11 var10 var9 var8 var7 var6 var5 var4 var3 var2 var1) (and (not (= var11 0)) (not (= var0 0))))) (inv_main62 var12 0 var10 var9 var8 var7 var6 var5 var4 var0 var2 var1))))
(assert (forall ((var0 Int) (var1 Int) (var2 Int) (var3 Int) (var4 Int) (var5 Int) (var6 Int) (var7 Int) (var8 Int) (var9 Int) (var10 Int) (var11 Int) (var12 Int)) (or (not (and (inv_main49 var12 var11 var10 var9 var8 var7 var6 var5 var4 var3 var2 var1) (and (= var11 0) (not (= var0 0))))) (inv_main62 var12 1 var10 var9 var8 var7 var6 var5 var4 var0 var2 var1))))
(assert (forall ((var0 Int) (var1 Int) (var2 Int) (var3 Int) (var4 Int) (var5 Int) (var6 Int) (var7 Int) (var8 Int) (var9 Int) (var10 Int) (var11 Int)) (or (not (and (inv_main109 var11 var10 var9 var8 var7 var6 var5 var4 var3 var2 var1 var0) (and (= var8 0) (and (= var11 2) (= var10 0))))) (inv_main153 var11 var10 var9 var8 var7 var6 var5 var4 var3 var2 var1 var0 var10 var11 var8))))
(assert (forall ((var0 Int) (var1 Int) (var2 Int) (var3 Int) (var4 Int) (var5 Int) (var6 Int) (var7 Int) (var8 Int) (var9 Int) (var10 Int) (var11 Int) (var12 Int) (var13 Int)) (or (not (and (inv_main242 var13 var12 var11 var10 var9 var8 var7 var6 var5 var4 var3 var2 var1 var0) (= var9 0))) (inv_main253 var13 var12 var11 var10 var9 var8 var7 var6 var5 var4 var3 var2 var1 var0))))
(assert (forall ((var0 Int) (var1 Int) (var2 Int) (var3 Int) (var4 Int) (var5 Int) (var6 Int) (var7 Int) (var8 Int) (var9 Int) (var10 Int) (var11 Int) (var12 Int) (var13 Int)) (or (not (and (inv_main242 var13 var12 var11 var10 var9 var8 var7 var6 var5 var4 var3 var2 var1 var0) (not (= var9 0)))) (inv_main253 var13 var12 var11 var10 var9 var8 var7 var6 var5 var4 var3 var2 var1 var0))))
(assert (forall ((var0 Int) (var1 Int) (var2 Int) (var3 Int) (var4 Int) (var5 Int) (var6 Int) (var7 Int) (var8 Int) (var9 Int) (var10 Int) (var11 Int) (var12 Int) (var13 Int)) (or (not (and (inv_main253 var13 var12 var11 var10 var9 var8 var7 var6 var5 var4 var3 var2 var1 var0) (and (= var10 0) (and (= var13 2) (= var12 0))))) (inv_main297 var13 var12 var11 var10 var9 var8 var7 var6 var5 var4 var3 var2 var1 var0 var12 var13 var10))))
(assert (forall ((var0 Int) (var1 Int) (var2 Int) (var3 Int) (var4 Int) (var5 Int) (var6 Int) (var7 Int) (var8 Int) (var9 Int) (var10 Int) (var11 Int) (var12 Int) (var13 Int)) (or (not (and (inv_main169 var13 var12 var11 var10 var9 var8 var7 var6 var5 var4 var3 var2 var1 var0) (= var9 0))) (inv_main180 var13 var12 var11 var10 var9 var8 var7 var6 var5 var4 var3 var2 var1 var0))))
(assert (forall ((var0 Int) (var1 Int) (var2 Int) (var3 Int) (var4 Int) (var5 Int) (var6 Int) (var7 Int) (var8 Int) (var9 Int) (var10 Int) (var11 Int) (var12 Int) (var13 Int)) (or (not (and (inv_main169 var13 var12 var11 var10 var9 var8 var7 var6 var5 var4 var3 var2 var1 var0) (not (= var9 0)))) (inv_main180 var13 var12 var11 var10 var9 var8 var7 var6 var5 var4 var3 var2 var1 var0))))
(assert (forall ((var0 Int) (var1 Int) (var2 Int) (var3 Int) (var4 Int) (var5 Int) (var6 Int) (var7 Int) (var8 Int) (var9 Int) (var10 Int) (var11 Int) (var12 Int) (var13 Int)) (or (not (and (inv_main180 var13 var12 var11 var10 var9 var8 var7 var6 var5 var4 var3 var2 var1 var0) (not (= var12 0)))) (inv_main164 var13 var12 var11 var10 var9 var8 var7 var6 var5 var4 var3 var2 0 var0))))
(assert (forall ((var0 Int) (var1 Int) (var2 Int) (var3 Int) (var4 Int) (var5 Int) (var6 Int) (var7 Int) (var8 Int) (var9 Int) (var10 Int) (var11 Int) (var12 Int) (var13 Int)) (or (not (and (inv_main180 var13 var12 var11 var10 var9 var8 var7 var6 var5 var4 var3 var2 var1 var0) (and (not (= var13 2)) (= var12 0)))) (inv_main164 var13 var12 var11 var10 var9 var8 var7 var6 var5 var4 var3 var2 0 var0))))
(assert (forall ((var0 Int) (var1 Int) (var2 Int) (var3 Int) (var4 Int) (var5 Int) (var6 Int) (var7 Int) (var8 Int) (var9 Int) (var10 Int) (var11 Int) (var12 Int) (var13 Int)) (or (not (and (inv_main180 var13 var12 var11 var10 var9 var8 var7 var6 var5 var4 var3 var2 var1 var0) (and (not (= var10 0)) (and (= var13 2) (= var12 0))))) (inv_main164 var13 var12 var11 var10 var9 var8 var7 var6 var5 var4 var3 var2 0 var0))))
(assert (forall ((var0 Int) (var1 Int) (var2 Int) (var3 Int) (var4 Int) (var5 Int) (var6 Int) (var7 Int) (var8 Int) (var9 Int) (var10 Int) (var11 Int) (var12 Int) (var13 Int)) (or (not (and (inv_main253 var13 var12 var11 var10 var9 var8 var7 var6 var5 var4 var3 var2 var1 var0) (not (= var12 0)))) (inv_main164 var13 var12 var11 var10 var9 var8 var7 var6 var5 var4 var3 var2 (+ var1 1) var0))))
(assert (forall ((var0 Int) (var1 Int) (var2 Int) (var3 Int) (var4 Int) (var5 Int) (var6 Int) (var7 Int) (var8 Int) (var9 Int) (var10 Int) (var11 Int) (var12 Int) (var13 Int)) (or (not (and (inv_main253 var13 var12 var11 var10 var9 var8 var7 var6 var5 var4 var3 var2 var1 var0) (and (not (= var13 2)) (= var12 0)))) (inv_main164 var13 var12 var11 var10 var9 var8 var7 var6 var5 var4 var3 var2 (+ var1 1) var0))))
(assert (forall ((var0 Int) (var1 Int) (var2 Int) (var3 Int) (var4 Int) (var5 Int) (var6 Int) (var7 Int) (var8 Int) (var9 Int) (var10 Int) (var11 Int) (var12 Int) (var13 Int)) (or (not (and (inv_main253 var13 var12 var11 var10 var9 var8 var7 var6 var5 var4 var3 var2 var1 var0) (and (not (= var10 0)) (and (= var13 2) (= var12 0))))) (inv_main164 var13 var12 var11 var10 var9 var8 var7 var6 var5 var4 var3 var2 (+ var1 1) var0))))
(assert (forall ((var0 Int) (var1 Int) (var2 Int) (var3 Int) (var4 Int) (var5 Int) (var6 Int) (var7 Int) (var8 Int) (var9 Int) (var10 Int) (var11 Int)) (or (not (and (inv_main98 var11 var10 var9 var8 var7 var6 var5 var4 var3 var2 var1 var0) (= var7 0))) (inv_main109 var11 var10 var9 var8 var7 var6 var5 var4 var3 var2 var1 var0))))
(assert (forall ((var0 Int) (var1 Int) (var2 Int) (var3 Int) (var4 Int) (var5 Int) (var6 Int) (var7 Int) (var8 Int) (var9 Int) (var10 Int) (var11 Int)) (or (not (and (inv_main98 var11 var10 var9 var8 var7 var6 var5 var4 var3 var2 var1 var0) (not (= var7 0)))) (inv_main109 var11 var10 var9 var8 var7 var6 var5 var4 var3 var2 var1 var0))))
(assert (forall ((var0 Int) (var1 Int) (var2 Int) (var3 Int) (var4 Int) (var5 Int) (var6 Int) (var7 Int) (var8 Int) (var9 Int) (var10 Int) (var11 Int)) (or (not (and (inv_main109 var11 var10 var9 var8 var7 var6 var5 var4 var3 var2 var1 var0) (not (= var10 0)))) (inv_main39 var11 var10 var9 var8 var7 var6 var5 var4 var3 var2 var1 var0))))
(assert (forall ((var0 Int) (var1 Int) (var2 Int) (var3 Int) (var4 Int) (var5 Int) (var6 Int) (var7 Int) (var8 Int) (var9 Int) (var10 Int) (var11 Int)) (or (not (and (inv_main109 var11 var10 var9 var8 var7 var6 var5 var4 var3 var2 var1 var0) (and (not (= var11 2)) (= var10 0)))) (inv_main39 var11 var10 var9 var8 var7 var6 var5 var4 var3 var2 var1 var0))))
(assert (forall ((var0 Int) (var1 Int) (var2 Int) (var3 Int) (var4 Int) (var5 Int) (var6 Int) (var7 Int) (var8 Int) (var9 Int) (var10 Int) (var11 Int)) (or (not (and (inv_main109 var11 var10 var9 var8 var7 var6 var5 var4 var3 var2 var1 var0) (and (not (= var8 0)) (and (= var11 2) (= var10 0))))) (inv_main39 var11 var10 var9 var8 var7 var6 var5 var4 var3 var2 var1 var0))))
(assert (forall ((var0 Int) (var1 Int) (var2 Int) (var3 Int) (var4 Int) (var5 Int) (var6 Int) (var7 Int) (var8 Int) (var9 Int) (var10 Int)) (or (not (inv_main4 var10 var9 var8 var7 var6 var5 var4)) (inv_main39 var10 var9 var8 var7 var6 var5 1 0 var3 var2 var1 var0))))
(assert (forall ((var0 Int) (var1 Int) (var2 Int) (var3 Int) (var4 Int) (var5 Int) (var6 Int) (var7 Int) (var8 Int) (var9 Int) (var10 Int) (var11 Int)) (or (not (and (inv_main73 var11 var10 var9 var8 var7 var6 var5 var4 var3 var2 var1 var0) (= var8 0))) (inv_main98 var11 var10 var9 var8 var7 var6 var5 var4 var3 var2 var1 var0))))
(assert (forall ((var0 Int) (var1 Int) (var2 Int) (var3 Int) (var4 Int) (var5 Int) (var6 Int) (var7 Int) (var8 Int) (var9 Int) (var10 Int) (var11 Int)) (or (not (and (inv_main73 var11 var10 var9 var8 var7 var6 var5 var4 var3 var2 var1 var0) (and (<= 0 (+ var11 (- 1))) (not (= var8 0))))) (inv_main98 (+ var11 (- 1)) var10 var9 var8 var7 var6 var5 var4 var3 var2 var1 var0))))
(assert (forall ((var0 Int) (var1 Int) (var2 Int) (var3 Int) (var4 Int) (var5 Int) (var6 Int) (var7 Int) (var8 Int) (var9 Int) (var10 Int) (var11 Int)) (or (not (and (inv_main73 var11 var10 var9 var8 var7 var6 var5 var4 var3 var2 var1 var0) (and (not (<= 0 (+ var11 (- 1)))) (not (= var8 0))))) (inv_main98 var11 var10 var9 var8 var7 var6 var5 var4 var3 var2 var1 var0))))
(assert (forall ((var0 Int) (var1 Int) (var2 Int) (var3 Int) (var4 Int) (var5 Int) (var6 Int) (var7 Int) (var8 Int) (var9 Int) (var10 Int) (var11 Int) (var12 Int) (var13 Int)) (or (not (and (inv_main39 var13 var12 var11 var10 var9 var8 var7 var6 var5 var4 var3 var2) (and (= var10 0) (not (<= 0 (+ (+ 4 (* (- 1) var6)) (- 1))))))) (inv_main169 var13 var12 var11 var10 var9 var8 var7 var6 var5 var4 var3 var2 var1 var0))))
(assert (forall ((var0 Int) (var1 Int) (var2 Int) (var3 Int) (var4 Int) (var5 Int) (var6 Int) (var7 Int) (var8 Int) (var9 Int) (var10 Int) (var11 Int) (var12 Int) (var13 Int)) (or (not (and (inv_main39 var13 var12 var11 var10 var9 var8 var7 var6 var5 var4 var3 var2) (and (and (<= 0 (+ var13 (- 1))) (not (= var10 0))) (not (<= 0 (+ (+ 4 (* (- 1) var6)) (- 1))))))) (inv_main169 (+ var13 (- 1)) var12 var11 var10 var9 var8 var7 var6 var5 var4 var3 var2 var1 var0))))
(assert (forall ((var0 Int) (var1 Int) (var2 Int) (var3 Int) (var4 Int) (var5 Int) (var6 Int) (var7 Int) (var8 Int) (var9 Int) (var10 Int) (var11 Int) (var12 Int) (var13 Int)) (or (not (and (inv_main39 var13 var12 var11 var10 var9 var8 var7 var6 var5 var4 var3 var2) (and (and (not (<= 0 (+ var13 (- 1)))) (not (= var10 0))) (not (<= 0 (+ (+ 4 (* (- 1) var6)) (- 1))))))) (inv_main169 var13 var12 var11 var10 var9 var8 var7 var6 var5 var4 var3 var2 var1 var0))))
(assert (forall ((var0 Int) (var1 Int) (var2 Int) (var3 Int) (var4 Int) (var5 Int) (var6 Int) (var7 Int) (var8 Int) (var9 Int) (var10 Int) (var11 Int) (var12 Int) (var13 Int) (var14 Int)) (not (inv_main153 var14 var13 var12 var11 var10 var9 var8 var7 var6 var5 var4 var3 var2 var1 var0))))
(assert (forall ((var0 Int) (var1 Int) (var2 Int) (var3 Int) (var4 Int) (var5 Int) (var6 Int) (var7 Int) (var8 Int) (var9 Int) (var10 Int) (var11 Int) (var12 Int) (var13 Int) (var14 Int) (var15 Int) (var16 Int)) (not (inv_main224 var16 var15 var14 var13 var12 var11 var10 var9 var8 var7 var6 var5 var4 var3 var2 var1 var0))))
(assert (forall ((var0 Int) (var1 Int) (var2 Int) (var3 Int) (var4 Int) (var5 Int) (var6 Int) (var7 Int) (var8 Int) (var9 Int) (var10 Int) (var11 Int) (var12 Int) (var13 Int) (var14 Int) (var15 Int) (var16 Int)) (not (inv_main297 var16 var15 var14 var13 var12 var11 var10 var9 var8 var7 var6 var5 var4 var3 var2 var1 var0))))
(check-sat)
